Problem:    Oficinas2
Rows:       31
Columns:    70 (70 integer, 70 binary)
Non-zeros:  262
Status:     INTEGER OPTIMAL
Objective:  Z = 7400 (MINimum)

   No.   Row name        Activity     Lower bound   Upper bound
------ ------------    ------------- ------------- -------------
     1 Z                        7400                             
     2 cadaTrabajadorUnaOficina[1]
                                   1             1             = 
     3 cadaTrabajadorUnaOficina[2]
                                   1             1             = 
     4 cadaTrabajadorUnaOficina[3]
                                   1             1             = 
     5 cadaTrabajadorUnaOficina[4]
                                   1             1             = 
     6 cadaTrabajadorUnaOficina[5]
                                   1             1             = 
     7 cadaTrabajadorUnaOficina[6]
                                   1             1             = 
     8 cadaOficinaUnTrabajador[1]
                                   1                           1 
     9 cadaOficinaUnTrabajador[2]
                                   1                           1 
    10 cadaOficinaUnTrabajador[3]
                                   0                           1 
    11 cadaOficinaUnTrabajador[4]
                                   0                           1 
    12 cadaOficinaUnTrabajador[5]
                                   1                           1 
    13 cadaOficinaUnTrabajador[6]
                                   1                           1 
    14 cantOficinasArrendar
                                   6             6             = 
    15 mismaCantOficinasArrendadas[1]
                                   0            -0             = 
    16 mismaCantOficinasArrendadas[2]
                                   0            -0             = 
    17 mismaCantOficinasArrendadas[3]
                                   0            -0             = 
    18 mismaCantOficinasArrendadas[4]
                                   0            -0             = 
    19 mismaCantOficinasArrendadas[5]
                                   0            -0             = 
    20 mismaCantOficinasArrendadas[6]
                                   0            -0             = 
    21 mismaCantOficinasArrendadas[7]
                                   0            -0             = 
    22 mismaCantOficinasArrendadas[8]
                                   0            -0             = 
    23 mismaCantOficinasArrendadas[9]
                                   0            -0             = 
    24 mismaCantOficinasArrendadas[10]
                                   0            -0             = 
    25 juanNoOficina3
                                   0            -0             = 
    26 AnaEn3NoPedro5
                                   0                           1 
    27 AnaEn5NoPedro3
                                   0                           1 
    28 Juan1o4o5                   0                           1 
    29 SiCamila1EntAna3
                                   0                          -0 
    30 SiSergio2yAna3EntAngela6
                                   0                           1 
    31 SiJuanoSergio3EntCamila6
                                  -2                          -0 

   No. Column name       Activity     Lower bound   Upper bound
------ ------------    ------------- ------------- -------------
     1 X[1,1]       *              0             0             1 
     2 X[1,2]       *              0             0             1 
     3 X[1,3]       *              0             0             1 
     4 X[1,4]       *              0             0             1 
     5 X[1,5]       *              0             0             1 
     6 X[1,6]       *              0             0             1 
     7 X[1,7]       *              0             0             1 
     8 X[1,8]       *              0             0             1 
     9 X[1,9]       *              1             0             1 
    10 X[1,10]      *              0             0             1 
    11 X[2,1]       *              0             0             1 
    12 X[2,2]       *              0             0             1 
    13 X[2,3]       *              0             0             1 
    14 X[2,4]       *              0             0             1 
    15 X[2,5]       *              0             0             1 
    16 X[2,6]       *              0             0             1 
    17 X[2,7]       *              0             0             1 
    18 X[2,8]       *              0             0             1 
    19 X[2,9]       *              0             0             1 
    20 X[2,10]      *              1             0             1 
    21 X[3,1]       *              0             0             1 
    22 X[3,2]       *              1             0             1 
    23 X[3,3]       *              0             0             1 
    24 X[3,4]       *              0             0             1 
    25 X[3,5]       *              0             0             1 
    26 X[3,6]       *              0             0             1 
    27 X[3,7]       *              0             0             1 
    28 X[3,8]       *              0             0             1 
    29 X[3,9]       *              0             0             1 
    30 X[3,10]      *              0             0             1 
    31 X[4,1]       *              0             0             1 
    32 X[4,2]       *              0             0             1 
    33 X[4,3]       *              0             0             1 
    34 X[4,4]       *              0             0             1 
    35 X[4,5]       *              0             0             1 
    36 X[4,6]       *              1             0             1 
    37 X[4,7]       *              0             0             1 
    38 X[4,8]       *              0             0             1 
    39 X[4,9]       *              0             0             1 
    40 X[4,10]      *              0             0             1 
    41 X[5,1]       *              0             0             1 
    42 X[5,2]       *              0             0             1 
    43 X[5,3]       *              0             0             1 
    44 X[5,4]       *              0             0             1 
    45 X[5,5]       *              1             0             1 
    46 X[5,6]       *              0             0             1 
    47 X[5,7]       *              0             0             1 
    48 X[5,8]       *              0             0             1 
    49 X[5,9]       *              0             0             1 
    50 X[5,10]      *              0             0             1 
    51 X[6,1]       *              1             0             1 
    52 X[6,2]       *              0             0             1 
    53 X[6,3]       *              0             0             1 
    54 X[6,4]       *              0             0             1 
    55 X[6,5]       *              0             0             1 
    56 X[6,6]       *              0             0             1 
    57 X[6,7]       *              0             0             1 
    58 X[6,8]       *              0             0             1 
    59 X[6,9]       *              0             0             1 
    60 X[6,10]      *              0             0             1 
    61 Y[1]         *              1             0             1 
    62 Y[2]         *              1             0             1 
    63 Y[3]         *              0             0             1 
    64 Y[4]         *              0             0             1 
    65 Y[5]         *              1             0             1 
    66 Y[6]         *              1             0             1 
    67 Y[7]         *              0             0             1 
    68 Y[8]         *              0             0             1 
    69 Y[9]         *              1             0             1 
    70 Y[10]        *              1             0             1 

Integer feasibility conditions:

KKT.PE: max.abs.err = 0.00e+00 on row 0
        max.rel.err = 0.00e+00 on row 0
        High quality

KKT.PB: max.abs.err = 0.00e+00 on row 0
        max.rel.err = 0.00e+00 on row 0
        High quality

End of output
